************************************************************************
file with basedata            : n/a
initial value random generator: n/a
************************************************************************
projects                      :  1
jobs (incl. supersource/sink ):  122
horizon                       :  704
RESOURCES
  - renewable                 :  4   R
  - nonrenewable              :  0   N
  - doubly constrained        :  0   D
************************************************************************
PROJECT INFORMATION:
pronr.  #jobs rel.date duedate tardcost  MPM-Time
    1    120      0      103       29      103
************************************************************************
PRECEDENCE RELATIONS:
jobnr.    #modes  #successors   successors
   1        1          3           2   3   4
   2        1          3           5   6  41
   3        1          3           7  11  37
   4        1          3          13  26 115
   5        1          3          58  78  93
   6        1          3          15  27  71
   7        1          3           8  10  30
   8        1          3           9  28  75
   9        1          3          20  33  35
  10        1          3          14  25  56
  11        1          3          12  24  60
  12        1          3          16  21  43
  13        1          2          22  53
  14        1          1          57
  15        1          3          29  72 101
  16        1          2          17  18
  17        1          2         103 120
  18        1          3          19  82  84
  19        1          3          38  39  99
  20        1          2          23 110
  21        1          3          31  57  67
  22        1          3          61  82 110
  23        1          3          34  42 101
  24        1          3          40  52  77
  25        1          2          46  47
  26        1          3          32  46  66
  27        1          2          52  83
  28        1          3          59  79 108
  29        1          3          34  45 102
  30        1          1          91
  31        1          3          63  78  97
  32        1          1          39
  33        1          1         121
  34        1          3          36  65  86
  35        1          3          66  69 101
  36        1          2          48  53
  37        1          2          86  87
  38        1          3          44  54  68
  39        1          1         105
  40        1          1          54
  41        1          3          50  61  80
  42        1          1          95
  43        1          3          54  55  76
  44        1          1          87
  45        1          1          51
  46        1          2          53  84
  47        1          3          68  94 106
  48        1          2          49  64
  49        1          1          84
  50        1          2          60  79
  51        1          1          76
  52        1          1         112
  53        1          1          82
  54        1          1          65
  55        1          1         108
  56        1          2          71  90
  57        1          3          62 110 114
  58        1          3          69  85  90
  59        1          2          64 111
  60        1          1          70
  61        1          1          71
  62        1          1          65
  63        1          2          80 107
  64        1          1          74
  65        1          2          83  89
  66        1          1         104
  67        1          3          72  73 117
  68        1          2          86  90
  69        1          2         102 104
  70        1          2          73 117
  71        1          2          74 106
  72        1          2          81  96
  73        1          1          88
  74        1          1          98
  75        1          1          91
  76        1          1          81
  77        1          2         106 111
  78        1          1          80
  79        1          3          97 105 112
  80        1          2         113 121
  81        1          1          91
  82        1          1          98
  83        1          1         118
  84        1          1          96
  85        1          3          89  94  98
  86        1          1          88
  87        1          2          89 103
  88        1          2          92 100
  89        1          2          92 111
  90        1          1         116
  91        1          1         115
  92        1          1         108
  93        1          2          95 107
  94        1          1          99
  95        1          2         102 103
  96        1          3          97 100 116
  97        1          1         104
  98        1          1          99
  99        1          1         100
 100        1          1         107
 101        1          1         109
 102        1          2         105 113
 103        1          1         109
 104        1          1         120
 105        1          1         114
 106        1          1         109
 107        1          1         113
 108        1          1         112
 109        1          1         116
 110        1          1         117
 111        1          1         118
 112        1          2         115 118
 113        1          1         114
 114        1          1         119
 115        1          1         120
 116        1          1         119
 117        1          1         119
 118        1          1         121
 119        1          1         122
 120        1          1         122
 121        1          1         122
 122        1          0        
************************************************************************
REQUESTS/DURATIONS:
jobnr. mode duration  R 1  R 2  R 3  R 4
------------------------------------------------------------------------
  1      1     0    
  2      1     7       9   9   9   9   9   9   9
                       5   5   5   5   5   5   5
                      10  10  10  10  10  10  10
                       8   8   8   8   8   8   8
  3      1     2       9   9
                      10  10
                       5   5
                       7   7
  4      1     3       2   2   2
                       8   8   8
                       5   5   5
                      10  10  10
  5      1     1       0
                       0
                       0
                       0
  6      1     6       9   9   9   9   9   9
                       1   1   1   1   1   1
                       3   3   3   3   3   3
                       3   3   3   3   3   3
  7      1     5       1   1   1   1   1
                       5   5   5   5   5
                      10  10  10  10  10
                       2   2   2   2   2
  8      1     9       6   6   6   6   6   6   0   6   6
                       9   9   9   9   9   9   0   9   9
                       1   1   1   1   1   1   0   1   1
                       7   7   7   7   7   7   0   7   7
  9      1     2       4   4
                       4   4
                       5   5
                       5   5
 10      1    10       0   0   5   0   0   5   5   5   5   5
                       0   0   3   0   0   3   3   3   3   3
                       0   0   9   0   0   9   9   9   9   9
                       0   0   7   0   0   7   7   7   7   7
 11      1     7       3   0   3   3   3   3   3
                       9   0   9   9   9   9   9
                       8   0   8   8   8   8   8
                       7   0   7   7   7   7   7
 12      1     8       1   1   1   1   0   1   1   1
                       9   9   9   9   0   9   9   9
                       5   5   5   5   0   5   5   5
                       9   9   9   9   0   9   9   9
 13      1     9       9   9   9   9   9   9   9   9   0
                       9   9   9   9   9   9   9   9   0
                      10  10  10  10  10  10  10  10   0
                       2   2   2   2   2   2   2   2   0
 14      1     7       3   0   0   3   3   3   3
                       9   0   0   9   9   9   9
                       4   0   0   4   4   4   4
                       6   0   0   6   6   6   6
 15      1     7       6   6   6   6   6   6   6
                       8   8   8   8   8   8   8
                       6   6   6   6   6   6   6
                       9   9   9   9   9   9   9
 16      1     6       6   6   6   6   6   6
                       7   7   7   7   7   7
                       1   1   1   1   1   1
                       1   1   1   1   1   1
 17      1     5       5   5   5   0   5
                       2   2   2   0   2
                       9   9   9   0   9
                       8   8   8   0   8
 18      1     9       6   6   6   6   6   6   0   6   6
                      10  10  10  10  10  10   0  10  10
                       7   7   7   7   7   7   0   7   7
                       4   4   4   4   4   4   0   4   4
 19      1     8       5   5   5   5   5   5   5   5
                       8   8   8   8   8   8   8   8
                       5   5   5   5   5   5   5   5
                       8   8   8   8   8   8   8   8
 20      1     5       9   9   0   9   9
                       3   3   0   3   3
                       9   9   0   9   9
                       9   9   0   9   9
 21      1     1       9
                       9
                       9
                       4
 22      1     9       7   0   7   7   7   7   0   7   7
                      10   0  10  10  10  10   0  10  10
                       9   0   9   9   9   9   0   9   9
                       2   0   2   2   2   2   0   2   2
 23      1     2      10  10
                      10  10
                       7   7
                       6   6
 24      1     8       5   5   5   5   0   5   5   5
                       6   6   6   6   0   6   6   6
                      10  10  10  10   0  10  10  10
                       5   5   5   5   0   5   5   5
 25      1     6       3   3   3   3   3   0
                       2   2   2   2   2   0
                       3   3   3   3   3   0
                       9   9   9   9   9   0
 26      1     8       0   1   1   1   1   0   0   1
                       0   9   9   9   9   0   0   9
                       0   7   7   7   7   0   0   7
                       0   7   7   7   7   0   0   7
 27      1     6       6   6   6   6   6   6
                       2   2   2   2   2   2
                       6   6   6   6   6   6
                       5   5   5   5   5   5
 28      1    10      10  10  10  10  10  10  10  10  10   0
                       6   6   6   6   6   6   6   6   6   0
                       6   6   6   6   6   6   6   6   6   0
                       4   4   4   4   4   4   4   4   4   0
 29      1     9       9   9   9   9   9   9   9   9   9
                       1   1   1   1   1   1   1   1   1
                      10  10  10  10  10  10  10  10  10
                       3   3   3   3   3   3   3   3   3
 30      1     1       7
                       2
                       9
                       4
 31      1     3      10  10  10
                       8   8   8
                       9   9   9
                       7   7   7
 32      1     8       9   9   0   9   9   9   9   9
                       2   2   0   2   2   2   2   2
                      10  10   0  10  10  10  10  10
                       3   3   0   3   3   3   3   3
 33      1     3       6   6   6
                       2   2   2
                       7   7   7
                       8   8   8
 34      1     3       7   7   7
                       2   2   2
                       3   3   3
                       2   2   2
 35      1     3      10  10  10
                       3   3   3
                       3   3   3
                       7   7   7
 36      1     4       9   9   9   9
                       4   4   4   4
                       6   6   6   6
                       8   8   8   8
 37      1     9       6   0   6   6   6   6   6   6   6
                       6   0   6   6   6   6   6   6   6
                       2   0   2   2   2   2   2   2   2
                       5   0   5   5   5   5   5   5   5
 38      1    10       8   8   8   0   8   8   8   8   8   8
                       2   2   2   0   2   2   2   2   2   2
                       3   3   3   0   3   3   3   3   3   3
                       5   5   5   0   5   5   5   5   5   5
 39      1     2       9   0
                       1   0
                       4   0
                       1   0
 40      1     3       8   8   8
                       5   5   5
                       5   5   5
                       9   9   9
 41      1     8       3   0   3   3   3   3   3   0
                       3   0   3   3   3   3   3   0
                       1   0   1   1   1   1   1   0
                       5   0   5   5   5   5   5   0
 42      1     6       4   4   4   4   4   4
                      10  10  10  10  10  10
                       4   4   4   4   4   4
                       5   5   5   5   5   5
 43      1     1       3
                       5
                       1
                       7
 44      1     1       8
                       7
                       1
                      10
 45      1     5       5   5   5   0   5
                       2   2   2   0   2
                       7   7   7   0   7
                       8   8   8   0   8
 46      1     8      10  10  10  10  10  10  10  10
                       8   8   8   8   8   8   8   8
                       9   9   9   9   9   9   9   9
                       8   8   8   8   8   8   8   8
 47      1     2       4   4
                       3   3
                       8   8
                       7   7
 48      1     2       0   9
                       0   5
                       0   1
                       0   2
 49      1     9       7   7   7   7   7   7   7   7   7
                       4   4   4   4   4   4   4   4   4
                      10  10  10  10  10  10  10  10  10
                       4   4   4   4   4   4   4   4   4
 50      1    10       3   3   3   3   3   3   3   3   3   3
                       9   9   9   9   9   9   9   9   9   9
                      10  10  10  10  10  10  10  10  10  10
                       3   3   3   3   3   3   3   3   3   3
 51      1     6       0   6   6   6   6   6
                       0   6   6   6   6   6
                       0   4   4   4   4   4
                       0   1   1   1   1   1
 52      1     9       7   7   7   7   7   7   7   7   7
                       5   5   5   5   5   5   5   5   5
                       2   2   2   2   2   2   2   2   2
                       8   8   8   8   8   8   8   8   8
 53      1     2       3   3
                       6   6
                       2   2
                       8   8
 54      1     9       5   5   0   5   5   5   5   5   5
                       1   1   0   1   1   1   1   1   1
                       1   1   0   1   1   1   1   1   1
                       6   6   0   6   6   6   6   6   6
 55      1     9       7   7   7   7   0   7   7   7   7
                       5   5   5   5   0   5   5   5   5
                       3   3   3   3   0   3   3   3   3
                       2   2   2   2   0   2   2   2   2
 56      1     5       4   4   4   4   4
                       6   6   6   6   6
                       9   9   9   9   9
                       2   2   2   2   2
 57      1     7       7   7   7   7   7   7   7
                       6   6   6   6   6   6   6
                       6   6   6   6   6   6   6
                       6   6   6   6   6   6   6
 58      1     1       8
                       8
                       2
                      10
 59      1     6       1   1   1   1   1   1
                       6   6   6   6   6   6
                       1   1   1   1   1   1
                       6   6   6   6   6   6
 60      1     5       2   2   2   2   2
                       6   6   6   6   6
                       4   4   4   4   4
                       7   7   7   7   7
 61      1    10       2   2   2   2   2   2   2   2   2   2
                       6   6   6   6   6   6   6   6   6   6
                       9   9   9   9   9   9   9   9   9   9
                       9   9   9   9   9   9   9   9   9   9
 62      1     1       0
                       0
                       0
                       0
 63      1     9       5   5   5   5   5   5   5   5   5
                       2   2   2   2   2   2   2   2   2
                       5   5   5   5   5   5   5   5   5
                       7   7   7   7   7   7   7   7   7
 64      1    10       8   8   8   8   8   8   8   8   8   8
                       1   1   1   1   1   1   1   1   1   1
                       4   4   4   4   4   4   4   4   4   4
                       3   3   3   3   3   3   3   3   3   3
 65      1     1       2
                       1
                       6
                       4
 66      1     1       9
                      10
                       4
                       5
 67      1     8       9   9   9   0   9   0   9   9
                       8   8   8   0   8   0   8   8
                      10  10  10   0  10   0  10  10
                       5   5   5   0   5   0   5   5
 68      1     9       6   6   6   6   6   6   6   6   6
                       1   1   1   1   1   1   1   1   1
                       9   9   9   9   9   9   9   9   9
                       3   3   3   3   3   3   3   3   3
 69      1     1       3
                       4
                       1
                       3
 70      1     4       3   3   3   3
                       9   9   9   9
                       1   1   1   1
                       7   7   7   7
 71      1    10       3   3   3   0   3   3   3   0   3   3
                       6   6   6   0   6   6   6   0   6   6
                      10  10  10   0  10  10  10   0  10  10
                       5   5   5   0   5   5   5   0   5   5
 72      1    10       1   1   1   1   1   1   1   1   1   1
                       6   6   6   6   6   6   6   6   6   6
                       4   4   4   4   4   4   4   4   4   4
                       3   3   3   3   3   3   3   3   3   3
 73      1     7       7   7   7   7   7   7   7
                       3   3   3   3   3   3   3
                       5   5   5   5   5   5   5
                       9   9   9   9   9   9   9
 74      1     9       6   6   0   6   6   6   6   6   6
                       4   4   0   4   4   4   4   4   4
                      10  10   0  10  10  10  10  10  10
                       4   4   0   4   4   4   4   4   4
 75      1     5       8   8   8   8   8
                      10  10  10  10  10
                       6   6   6   6   6
                       5   5   5   5   5
 76      1    10       2   2   2   2   2   2   2   2   0   0
                       2   2   2   2   2   2   2   2   0   0
                       9   9   9   9   9   9   9   9   0   0
                       4   4   4   4   4   4   4   4   0   0
 77      1     4       4   0   4   4
                      10   0  10  10
                       9   0   9   9
                      10   0  10  10
 78      1     8      10  10  10  10  10  10  10  10
                       7   7   7   7   7   7   7   7
                       8   8   8   8   8   8   8   8
                       3   3   3   3   3   3   3   3
 79      1     1       8
                       5
                       5
                       6
 80      1     1       0
                       0
                       0
                       0
 81      1     9       1   1   1   1   1   1   1   1   1
                       4   4   4   4   4   4   4   4   4
                      10  10  10  10  10  10  10  10  10
                       2   2   2   2   2   2   2   2   2
 82      1     2       2   2
                       8   8
                       1   1
                       5   5
 83      1     8       0   4   4   4   4   4   4   4
                       0  10  10  10  10  10  10  10
                       0   9   9   9   9   9   9   9
                       0   7   7   7   7   7   7   7
 84      1     8       7   7   7   7   7   7   0   7
                       7   7   7   7   7   7   0   7
                       3   3   3   3   3   3   0   3
                      10  10  10  10  10  10   0  10
 85      1     6       6   6   6   6   6   6
                       1   1   1   1   1   1
                       1   1   1   1   1   1
                       7   7   7   7   7   7
 86      1     4       7   7   7   7
                       1   1   1   1
                       6   6   6   6
                       4   4   4   4
 87      1     4       0   6   6   6
                       0   2   2   2
                       0   8   8   8
                       0   2   2   2
 88      1     1       8
                       1
                       6
                       9
 89      1     4       1   1   0   1
                       8   8   0   8
                       2   2   0   2
                       5   5   0   5
 90      1     1       4
                       4
                       8
                       3
 91      1     9       6   6   6   6   6   6   6   6   6
                       1   1   1   1   1   1   1   1   1
                       4   4   4   4   4   4   4   4   4
                       2   2   2   2   2   2   2   2   2
 92      1     7       1   1   1   1   1   1   1
                       6   6   6   6   6   6   6
                       5   5   5   5   5   5   5
                      10  10  10  10  10  10  10
 93      1     2       4   4
                       6   6
                       7   7
                       8   8
 94      1     5       8   8   8   8   8
                       4   4   4   4   4
                       7   7   7   7   7
                       6   6   6   6   6
 95      1     9       2   2   2   2   2   2   2   2   2
                       9   9   9   9   9   9   9   9   9
                       6   6   6   6   6   6   6   6   6
                       6   6   6   6   6   6   6   6   6
 96      1     7       4   4   4   4   0   4   4
                       2   2   2   2   0   2   2
                       5   5   5   5   0   5   5
                       2   2   2   2   0   2   2
 97      1     9       0   1   1   1   1   1   1   0   1
                       0   5   5   5   5   5   5   0   5
                       0   7   7   7   7   7   7   0   7
                       0   8   8   8   8   8   8   0   8
 98      1     5       4   4   4   0   4
                       1   1   1   0   1
                       2   2   2   0   2
                       2   2   2   0   2
 99      1     6       8   0   0   8   8   8
                       3   0   0   3   3   3
                       9   0   0   9   9   9
                       6   0   0   6   6   6
100      1     9       3   0   3   3   3   3   3   3   3
                      10   0  10  10  10  10  10  10  10
                       1   0   1   1   1   1   1   1   1
                       4   0   4   4   4   4   4   4   4
101      1     2       0   2
                       0   5
                       0   3
                       0   3
102      1     4       5   5   5   0
                       7   7   7   0
                       1   1   1   0
                       1   1   1   0
103      1     7       5   5   5   5   5   5   0
                       3   3   3   3   3   3   0
                       9   9   9   9   9   9   0
                       3   3   3   3   3   3   0
104      1     1       2
                       2
                       5
                       6
105      1     7       6   6   0   6   0   6   6
                       5   5   0   5   0   5   5
                       1   1   0   1   0   1   1
                       9   9   0   9   0   9   9
106      1    10       6   6   6   6   0   6   6   6   6   6
                      10  10  10  10   0  10  10  10  10  10
                       5   5   5   5   0   5   5   5   5   5
                      10  10  10  10   0  10  10  10  10  10
107      1     7       0   0  10  10   0  10  10
                       0   0   5   5   0   5   5
                       0   0   9   9   0   9   9
                       0   0   1   1   0   1   1
108      1    10       5   5   5   5   5   5   5   5   5   5
                       5   5   5   5   5   5   5   5   5   5
                       7   7   7   7   7   7   7   7   7   7
                       1   1   1   1   1   1   1   1   1   1
109      1    10      10  10  10  10  10  10  10  10  10  10
                       4   4   4   4   4   4   4   4   4   4
                       3   3   3   3   3   3   3   3   3   3
                       8   8   8   8   8   8   8   8   8   8
110      1     9       1   1   1   1   1   1   1   1   1
                       1   1   1   1   1   1   1   1   1
                       4   4   4   4   4   4   4   4   4
                       5   5   5   5   5   5   5   5   5
111      1     7       2   0   2   2   2   0   2
                       6   0   6   6   6   0   6
                      10   0  10  10  10   0  10
                       2   0   2   2   2   0   2
112      1     8       0   0   4   4   4   4   4   4
                       0   0   3   3   3   3   3   3
                       0   0   4   4   4   4   4   4
                       0   0   6   6   6   6   6   6
113      1     1      10
                       4
                       3
                       6
114      1     7       6   0   6   6   6   0   6
                       3   0   3   3   3   0   3
                       1   0   1   1   1   0   1
                       1   0   1   1   1   0   1
115      1    10       1   1   1   1   1   1   1   1   1   1
                       1   1   1   1   1   1   1   1   1   1
                      10  10  10  10  10  10  10  10  10  10
                      10  10  10  10  10  10  10  10  10  10
116      1     8       8   8   8   8   8   8   8   8
                       5   5   5   5   5   5   5   5
                       4   4   4   4   4   4   4   4
                       7   7   7   7   7   7   7   7
117      1    10       0   1   0   1   1   1   1   1   1   1
                       0   1   0   1   1   1   1   1   1   1
                       0   6   0   6   6   6   6   6   6   6
                       0   3   0   3   3   3   3   3   3   3
118      1     9       7   7   7   7   7   7   0   7   7
                       2   2   2   2   2   2   0   2   2
                       9   9   9   9   9   9   0   9   9
                      10  10  10  10  10  10   0  10  10
119      1     3       6   0   0
                      10   0   0
                       9   0   0
                       7   0   0
120      1     4       5   5   0   5
                       2   2   0   2
                       5   5   0   5
                       9   9   0   9
121      1     1       6
                       3
                       5
                       3
122      1     0    
************************************************************************
RESOURCEAVAILABILITIES:
  R 1  R 2  R 3  R 4

  22  22  22  22  22  22  22  22  22  22  22  22  22  22   0  22  22  22  22  22  22  22  22  22  22  22  22  22  22   0  22  22  22   0  22  22  22  22  22  22  22  22  22  22  22  22  22  22  22  22  22   0  22  22  22  22  22  22  22  22  22  22  22  22  22  22  22  22  22  22  22  22  22  22  22  22  22  22  22  22  22  22  22  22  22  22   0  22  22  22  22  22  22  22  22  22  22   0  22  22  22  22  22  22  22  22  22  22  22  22  22   0   0  22  22  22  22  22  22  22  22  22  22  22  22  22  22  22  22  22  22  22  22  22  22   0  22  22  22  22  22  22  22  22  22  22  22  22  22  22  22  22  22  22  22  22  22  22  22   0  22  22  22  22  22  22  22  22  22   0  22  22   0  22  22  22  22  22  22  22  22  22  22  22  22   0  22  22  22   0  22  22  22   0  22  22  22  22   0  22  22   0  22  22  22  22   0  22  22   0  22  22  22  22   0  22  22  22  22  22  22  22   0  22  22  22  22  22  22  22  22   0  22  22  22  22  22  22  22  22  22   0  22  22  22  22  22  22  22  22   0  22  22  22  22  22  22  22  22   0  22  22  22  22  22  22  22   0  22  22  22  22  22  22  22  22  22  22  22  22   0  22   0  22  22  22  22  22  22  22  22  22  22  22  22  22  22  22   0  22  22  22  22  22  22  22  22  22  22  22  22  22  22   0  22  22  22  22  22  22  22  22  22  22   0  22  22  22  22  22  22   0  22  22  22  22  22   0  22  22  22  22  22  22  22  22  22  22  22  22  22  22  22  22  22  22  22  22  22  22  22  22  22  22  22  22  22   0  22  22  22  22  22  22  22   0  22   0  22  22  22  22  22  22  22  22  22  22  22  22  22  22   0  22  22  22  22  22  22  22  22  22  22  22  22  22  22  22  22  22  22  22  22  22  22  22  22  22  22  22   0  22  22  22  22  22  22  22  22  22  22  22  22  22  22  22  22  22  22  22  22  22  22  22   0   0  22  22  22  22   0   0  22  22  22  22  22  22  22  22   0  22  22  22  22  22  22  22  22  22   0  22  22  22  22  22  22  22  22  22  22  22  22  22  22   0  22  22  22  22  22  22  22  22  22  22  22  22  22  22  22  22  22  22   0  22  22  22  22  22  22  22  22  22   0  22  22  22  22  22  22  22  22   0  22  22  22  22  22  22  22  22  22  22  22  22  22  22  22  22  22  22  22  22  22  22  22   0  22  22  22   0  22  22  22  22  22  22  22   0  22  22  22  22  22  22  22  22  22  22  22  22  22  22  22   0  22  22  22  22  22  22   0  22  22  22  22  22  22  22  22   0  22  22  22  22   0  22  22   0  22  22  22  22  22  22   0  22  22  22  22  22  22  22  22  22  22  22  22  22  22  22  22  22  22  22  22  22  22  22  22  22  22  22  22  22   0  22  22  22  22  22  22  22  22  22  22  22  22  22   0  22  22  22  22  22  22  22  22  22  22  22   0  22  22  22  22  22  22  22   0  22  22  22  22  22   0  22  22   0  22  22   0  22  22  22  22  22  22  22  22  22  22   0   0  22  22  22  22  22  22  22  22  22

  21  21  21  21  21  21  21  21  21  21  21  21  21  21   0  21  21  21  21  21  21  21  21  21  21  21  21  21  21   0  21  21  21   0  21  21  21  21  21  21  21  21  21  21  21  21  21  21  21  21  21   0  21  21  21  21  21  21  21  21  21  21  21  21  21  21  21  21  21  21  21  21  21  21  21  21  21  21  21  21  21  21  21  21  21  21   0  21  21  21  21  21  21  21  21  21  21   0  21  21  21  21  21  21  21  21  21  21  21  21  21   0   0  21  21  21  21  21  21  21  21  21  21  21  21  21  21  21  21  21  21  21  21  21  21   0  21  21  21  21  21  21  21  21  21  21  21  21  21  21  21  21  21  21  21  21  21  21  21   0  21  21  21  21  21  21  21  21  21   0  21  21   0  21  21  21  21  21  21  21  21  21  21  21  21   0  21  21  21   0  21  21  21   0  21  21  21  21   0  21  21   0  21  21  21  21   0  21  21   0  21  21  21  21   0  21  21  21  21  21  21  21   0  21  21  21  21  21  21  21  21   0  21  21  21  21  21  21  21  21  21   0  21  21  21  21  21  21  21  21   0  21  21  21  21  21  21  21  21   0  21  21  21  21  21  21  21   0  21  21  21  21  21  21  21  21  21  21  21  21   0  21   0  21  21  21  21  21  21  21  21  21  21  21  21  21  21  21   0  21  21  21  21  21  21  21  21  21  21  21  21  21  21   0  21  21  21  21  21  21  21  21  21  21   0  21  21  21  21  21  21   0  21  21  21  21  21   0  21  21  21  21  21  21  21  21  21  21  21  21  21  21  21  21  21  21  21  21  21  21  21  21  21  21  21  21  21   0  21  21  21  21  21  21  21   0  21   0  21  21  21  21  21  21  21  21  21  21  21  21  21  21   0  21  21  21  21  21  21  21  21  21  21  21  21  21  21  21  21  21  21  21  21  21  21  21  21  21  21  21   0  21  21  21  21  21  21  21  21  21  21  21  21  21  21  21  21  21  21  21  21  21  21  21   0   0  21  21  21  21   0   0  21  21  21  21  21  21  21  21   0  21  21  21  21  21  21  21  21  21   0  21  21  21  21  21  21  21  21  21  21  21  21  21  21   0  21  21  21  21  21  21  21  21  21  21  21  21  21  21  21  21  21  21   0  21  21  21  21  21  21  21  21  21   0  21  21  21  21  21  21  21  21   0  21  21  21  21  21  21  21  21  21  21  21  21  21  21  21  21  21  21  21  21  21  21  21   0  21  21  21   0  21  21  21  21  21  21  21   0  21  21  21  21  21  21  21  21  21  21  21  21  21  21  21   0  21  21  21  21  21  21   0  21  21  21  21  21  21  21  21   0  21  21  21  21   0  21  21   0  21  21  21  21  21  21   0  21  21  21  21  21  21  21  21  21  21  21  21  21  21  21  21  21  21  21  21  21  21  21  21  21  21  21  21  21   0  21  21  21  21  21  21  21  21  21  21  21  21  21   0  21  21  21  21  21  21  21  21  21  21  21   0  21  21  21  21  21  21  21   0  21  21  21  21  21   0  21  21   0  21  21   0  21  21  21  21  21  21  21  21  21  21   0   0  21  21  21  21  21  21  21  21  21

  22  22  22  22  22  22  22  22  22  22  22  22  22  22   0  22  22  22  22  22  22  22  22  22  22  22  22  22  22   0  22  22  22   0  22  22  22  22  22  22  22  22  22  22  22  22  22  22  22  22  22   0  22  22  22  22  22  22  22  22  22  22  22  22  22  22  22  22  22  22  22  22  22  22  22  22  22  22  22  22  22  22  22  22  22  22   0  22  22  22  22  22  22  22  22  22  22   0  22  22  22  22  22  22  22  22  22  22  22  22  22   0   0  22  22  22  22  22  22  22  22  22  22  22  22  22  22  22  22  22  22  22  22  22  22   0  22  22  22  22  22  22  22  22  22  22  22  22  22  22  22  22  22  22  22  22  22  22  22   0  22  22  22  22  22  22  22  22  22   0  22  22   0  22  22  22  22  22  22  22  22  22  22  22  22   0  22  22  22   0  22  22  22   0  22  22  22  22   0  22  22   0  22  22  22  22   0  22  22   0  22  22  22  22   0  22  22  22  22  22  22  22   0  22  22  22  22  22  22  22  22   0  22  22  22  22  22  22  22  22  22   0  22  22  22  22  22  22  22  22   0  22  22  22  22  22  22  22  22   0  22  22  22  22  22  22  22   0  22  22  22  22  22  22  22  22  22  22  22  22   0  22   0  22  22  22  22  22  22  22  22  22  22  22  22  22  22  22   0  22  22  22  22  22  22  22  22  22  22  22  22  22  22   0  22  22  22  22  22  22  22  22  22  22   0  22  22  22  22  22  22   0  22  22  22  22  22   0  22  22  22  22  22  22  22  22  22  22  22  22  22  22  22  22  22  22  22  22  22  22  22  22  22  22  22  22  22   0  22  22  22  22  22  22  22   0  22   0  22  22  22  22  22  22  22  22  22  22  22  22  22  22   0  22  22  22  22  22  22  22  22  22  22  22  22  22  22  22  22  22  22  22  22  22  22  22  22  22  22  22   0  22  22  22  22  22  22  22  22  22  22  22  22  22  22  22  22  22  22  22  22  22  22  22   0   0  22  22  22  22   0   0  22  22  22  22  22  22  22  22   0  22  22  22  22  22  22  22  22  22   0  22  22  22  22  22  22  22  22  22  22  22  22  22  22   0  22  22  22  22  22  22  22  22  22  22  22  22  22  22  22  22  22  22   0  22  22  22  22  22  22  22  22  22   0  22  22  22  22  22  22  22  22   0  22  22  22  22  22  22  22  22  22  22  22  22  22  22  22  22  22  22  22  22  22  22  22   0  22  22  22   0  22  22  22  22  22  22  22   0  22  22  22  22  22  22  22  22  22  22  22  22  22  22  22   0  22  22  22  22  22  22   0  22  22  22  22  22  22  22  22   0  22  22  22  22   0  22  22   0  22  22  22  22  22  22   0  22  22  22  22  22  22  22  22  22  22  22  22  22  22  22  22  22  22  22  22  22  22  22  22  22  22  22  22  22   0  22  22  22  22  22  22  22  22  22  22  22  22  22   0  22  22  22  22  22  22  22  22  22  22  22   0  22  22  22  22  22  22  22   0  22  22  22  22  22   0  22  22   0  22  22   0  22  22  22  22  22  22  22  22  22  22   0   0  22  22  22  22  22  22  22  22  22

  20  20  20  20  20  20  20  20  20  20  20  20  20  20   0  20  20  20  20  20  20  20  20  20  20  20  20  20  20   0  20  20  20   0  20  20  20  20  20  20  20  20  20  20  20  20  20  20  20  20  20   0  20  20  20  20  20  20  20  20  20  20  20  20  20  20  20  20  20  20  20  20  20  20  20  20  20  20  20  20  20  20  20  20  20  20   0  20  20  20  20  20  20  20  20  20  20   0  20  20  20  20  20  20  20  20  20  20  20  20  20   0   0  20  20  20  20  20  20  20  20  20  20  20  20  20  20  20  20  20  20  20  20  20  20   0  20  20  20  20  20  20  20  20  20  20  20  20  20  20  20  20  20  20  20  20  20  20  20   0  20  20  20  20  20  20  20  20  20   0  20  20   0  20  20  20  20  20  20  20  20  20  20  20  20   0  20  20  20   0  20  20  20   0  20  20  20  20   0  20  20   0  20  20  20  20   0  20  20   0  20  20  20  20   0  20  20  20  20  20  20  20   0  20  20  20  20  20  20  20  20   0  20  20  20  20  20  20  20  20  20   0  20  20  20  20  20  20  20  20   0  20  20  20  20  20  20  20  20   0  20  20  20  20  20  20  20   0  20  20  20  20  20  20  20  20  20  20  20  20   0  20   0  20  20  20  20  20  20  20  20  20  20  20  20  20  20  20   0  20  20  20  20  20  20  20  20  20  20  20  20  20  20   0  20  20  20  20  20  20  20  20  20  20   0  20  20  20  20  20  20   0  20  20  20  20  20   0  20  20  20  20  20  20  20  20  20  20  20  20  20  20  20  20  20  20  20  20  20  20  20  20  20  20  20  20  20   0  20  20  20  20  20  20  20   0  20   0  20  20  20  20  20  20  20  20  20  20  20  20  20  20   0  20  20  20  20  20  20  20  20  20  20  20  20  20  20  20  20  20  20  20  20  20  20  20  20  20  20  20   0  20  20  20  20  20  20  20  20  20  20  20  20  20  20  20  20  20  20  20  20  20  20  20   0   0  20  20  20  20   0   0  20  20  20  20  20  20  20  20   0  20  20  20  20  20  20  20  20  20   0  20  20  20  20  20  20  20  20  20  20  20  20  20  20   0  20  20  20  20  20  20  20  20  20  20  20  20  20  20  20  20  20  20   0  20  20  20  20  20  20  20  20  20   0  20  20  20  20  20  20  20  20   0  20  20  20  20  20  20  20  20  20  20  20  20  20  20  20  20  20  20  20  20  20  20  20   0  20  20  20   0  20  20  20  20  20  20  20   0  20  20  20  20  20  20  20  20  20  20  20  20  20  20  20   0  20  20  20  20  20  20   0  20  20  20  20  20  20  20  20   0  20  20  20  20   0  20  20   0  20  20  20  20  20  20   0  20  20  20  20  20  20  20  20  20  20  20  20  20  20  20  20  20  20  20  20  20  20  20  20  20  20  20  20  20   0  20  20  20  20  20  20  20  20  20  20  20  20  20   0  20  20  20  20  20  20  20  20  20  20  20   0  20  20  20  20  20  20  20   0  20  20  20  20  20   0  20  20   0  20  20   0  20  20  20  20  20  20  20  20  20  20   0   0  20  20  20  20  20  20  20  20  20

************************************************************************
